c A SAT instance generated from a 3-CNF formula that had 63 clauses and 12 variables
p cnf 12 63
3 -4 -12 0
-8 10 -2 0
2 -1 -4 0
-2 -11 6 0
4 -7 11 0
-3 -5 -9 0
-5 12 -8 0
-6 -2 1 0
-9 -12 4 0
5 -10 6 0
8 -7 -6 0
9 -8 -12 0
-2 9 -1 0
-2 6 1 0
-9 -7 -8 0
-11 9 -6 0
-12 -8 6 0
10 7 -2 0
5 2 4 0
-8 -1 9 0
-5 6 9 0
8 4 3 0
9 5 -7 0
-6 -3 12 0
11 -12 -9 0
-9 -6 3 0
8 -12 -10 0
8 -4 12 0
-5 -1 6 0
5 -12 8 0
-9 -8 -12 0
4 5 -1 0
12 8 6 0
4 -9 1 0
-3 12 -9 0
-7 -6 3 0
-7 2 9 0
4 7 -11 0
1 -4 -7 0
5 7 -3 0
-6 12 7 0
-9 -8 -11 0
5 9 -2 0
-11 -10 -6 0
-9 6 7 0
-6 4 3 0
11 -7 5 0
7 11 -12 0
-3 2 9 0
-10 7 9 0
9 2 4 0
7 -9 11 0
-2 9 -8 0
1 -9 -12 0
-9 -3 -2 0
-12 -7 11 0
-5 7 -2 0
-10 -12 3 0
-1 4 -8 0
9 3 8 0
8 11 -7 0
8 12 10 0
8 -10 12 0
